16
Lattice="0.0 5.43 5.43 5.43 0.0 5.43 5.43 5.43 0.0" Properties=species:S:1:pos:R:3:alchemical_lambda:R:1:momenta:R:3:forces:R:3 energy=-45.44721930152607 free_energy=-45.44721930152607 pbc="T T T"
Si       0.00214393       0.00141396       0.00087992       0.00000000       0.70624336       0.42643182       0.51092196      -0.46175514      -1.08204031       0.34307329
Si       1.36086225       1.36127551       1.35987016       1.00000000       2.19965325       2.22293253       1.93732053      24.17902834      24.12631046      24.11381268
Si       2.71676965       2.71959067      -0.00045554       1.00000000       0.43338111       1.30910782      -0.10527673       0.00084105      -0.04999857       0.51092049
Si       4.06879608       4.06968915       1.36433583       1.00000000      -2.14785392      -2.03452914       3.04239074     -23.33120526     -23.27943383      23.28708471
Si       2.71719909      -0.00230863       2.71589726       1.00000000       0.59391811      -0.54879538       0.27940058      -0.05092671       0.49810040       0.00897353
Si       4.07221219       1.35770177       4.06814233       1.00000000      -1.39112363       1.25431889      -2.38941052     -24.06457782      23.98391589     -24.05423524
Si       5.42519614       2.71143047       2.71082087       1.00000000      -1.33143712      -0.93572794      -1.05651641      -0.43506609       0.05620483       0.07750107
Si       6.78853566       4.06826943       4.07485110       1.00000000       0.22255840      -1.32408035       0.65365628      -0.11087486       0.09742252       0.00490155
Si       0.00225459       2.71457604       2.70819529       1.00000000       0.60944090      -0.06851576      -2.03976705       0.47648952       0.00523359       0.08751582
Si       1.36136511       4.06833081       4.07009135       1.00000000       2.17704004      -2.28299505      -1.74683430      23.65882838     -23.75601951     -23.73925496
Si       2.71110312       5.42808307       2.71323318       1.00000000      -1.17532217      -0.53927304      -0.37842627       0.03367387      -0.43027804       0.04041087
Si       4.07164890       6.79205950       4.07085118       1.00000000      -0.24900758       1.37588032      -0.58905356       0.05690761      -0.10051057       0.03791287
Si       2.71701762       2.71769599       5.42900484       1.00000000       0.78703286       0.61922329      -0.35694967      -0.00410708      -0.05250950      -0.47305153
Si       4.07340375       4.07295108       6.78940262       1.00000000       0.11543116      -0.01039072       0.49622825       0.02471592       0.03430732      -0.06451727
Si       5.42786513       5.43063283       5.43566515       1.00000000      -0.58500222       0.27484958       1.61773943       0.01931957       0.01027024      -0.09568263
Si       6.78423067       6.79037203       6.78903427       1.00000000      -0.94061822       0.65704769       0.39500792       0.00870873      -0.06097492      -0.08536549
