193
Lattice="8.65320864 0.0 0.0 0.0 15.05202152 0.0 0.0 0.0 14.13541336" Properties=species:S:1:pos:R:3:alchemical_lambda:R:1:momenta:R:3:forces:R:3 energy=-944.472840564452 free_energy=-944.472840564452 pbc="T T T"
Li       4.05028478       7.80847776      10.03465823       0.00000000      -0.20603967       0.23490427       0.38305349       0.00839766      -0.02343241      -0.01132681
H        2.85640002       1.22347076       2.27331496       1.00000000       0.22059811       0.19650720      -0.11765342      -0.05790389      -0.34116721      -1.70854795
H       -0.13965837       2.60369205       5.27970583       1.00000000      -0.14082703      -0.03945749       0.04774469       0.51066291       0.02840626       0.15663129
H        2.98419909       0.17694254       3.56361332       1.00000000      -0.04737992       0.03458210       0.09074579      -1.05696285       1.59611297      -1.06259000
H       -0.14609676       3.66958527       6.44406397       1.00000000      -0.24028420      -0.07305943      -0.01691898       0.27012819       2.43787074       0.82298398
H        1.31178911       1.85361927       3.43711309       1.00000000       0.01762468      -0.04235496      -0.19558257      -0.31407982      -0.04854008       0.25210148
H        4.06475161       2.20800219       3.70883028       1.00000000      -0.05138165      -0.12843668       0.02940758      -0.75794971      -0.22221173      -0.19364451
H        1.81635301       1.56082979       0.01553391       1.00000000      -0.05471187      -0.41076281      -0.02299579       0.25846055       0.30756649       0.78928721
H        3.39007210       1.84414619       0.11701260       1.00000000      -0.06688459       0.05179081      -0.02895197      -0.34110934      -0.71522897       0.40947458
H        0.42789625       4.77011616       1.97305364       1.00000000      -0.11032112       0.08116880      -0.01376001      -0.29156336       0.52817112      -2.70198679
H        2.08394972       6.41135960       5.67021229       1.00000000      -0.19064568       0.06716599      -0.08217653       0.32523328      -0.07929211      -0.15748429
H        0.41327286       3.79578972       3.10272162       1.00000000       0.27071104       0.27747959       0.04830006      -0.03171603      -0.59484255       0.73678923
H        2.04737266       7.46074158       6.88656699       1.00000000      -0.14455443      -0.03377905       0.18023759      -0.05346700       1.12804115       0.61083835
H        3.37348521       5.64835335       3.82549447       1.00000000       0.03001016       0.05303751       0.03582081       0.16562802      -0.05301804      -0.51850623
H        1.75937230       5.58967550       3.47446396       1.00000000       0.24859987       0.03774520      -0.08060372       1.09158683       0.40089986       1.17495191
H        3.65729757       5.31222202       0.06540555       1.00000000      -0.15867365       0.02084602       0.12217603      -0.05640703       0.22789983      -0.04731914
H        1.04041485       5.39515068       0.01244841       1.00000000       0.06346989       0.42903006       0.03540225      -0.13127814      -0.20861600      -0.30437663
O        2.75879059       1.15172527       3.22819413       1.00000000      -0.97463105       0.73540801      -0.35222782       0.76913017      -1.35113907       2.55181527
O       -0.17209838       2.74419089       6.26500097       1.00000000       0.54113568      -0.58762265       1.30691781       0.19154175      -2.59479260      -1.14065385
O        0.47294191       2.39661915       3.61298195       1.00000000       0.73359264       0.52301791       0.23102321       0.00715245      -0.45660675       0.32629457
O        2.63888000       1.30671947       0.57858761       1.00000000      -0.61044661      -0.27924403       0.90064492       0.23932368       0.67734230      -1.25224841
O        0.31772659       4.77251981       2.90722980       1.00000000       0.35921960      -0.55785377       0.10159759       0.63601685       0.62758011       1.80958784
O        2.12551372       6.51522993       6.66431903       1.00000000      -0.29835543       0.64576613      -0.66703170      -0.16344364      -1.50172186      -0.50686181
O        2.49498429       6.03438398       4.07521146       1.00000000       1.40965947       0.59852192       0.60066853      -1.58494174      -0.12981309      -0.87742114
O        0.21655752       4.83167013       0.14081698       1.00000000      -0.43290887       0.03238555      -0.12542629      -0.35333654       0.06748208      -0.13475040
H        2.35540351       0.98710088       8.76006703       1.00000000       0.36647484      -0.13915814      -0.12491922      -0.07581231       0.54225415       0.47765139
H        0.44045373       2.11081729      12.45969111       1.00000000      -0.10595474       0.08536115       0.23669919       0.06195720       0.43770978       0.72391969
H        2.49978345       0.23599510      10.19537126       1.00000000      -0.35047605       0.14423031      -0.28392807      -0.38723770       0.84822971      -0.45509553
H        0.33853340       3.24044057      13.65973673       1.00000000       0.10010130      -0.25839153       0.21822937       0.28078115      -1.34284461      -0.05987563
H        0.93595121       2.09143241      10.20541300       1.00000000       0.01719542       0.05058550      -0.26718039       0.49669695      -0.39369723       0.37188518
H        3.67873559       1.91969545      10.65224968       1.00000000      -0.23460109      -0.24928906      -0.03115534      -0.56630749       0.29105112      -0.52247816
H        1.40203455       2.03673352       6.98304440       1.00000000       0.14599814      -0.05148188      -0.05280552       0.12102993       0.13350472      -0.43106455
H        3.06895768       1.81157405       6.93270107       1.00000000      -0.16148803      -0.07406894       0.05004135      -1.15748703       0.18494979      -0.17823295
H        0.15341515       4.80085769       9.08643916       1.00000000      -0.15427935      -0.16219951      -0.14383717       0.20280449       0.91194886      -0.15580156
H        2.43286990       5.86848581      12.70678524       1.00000000       0.00114182       0.00571264      -0.27338590       0.01607748       0.19131725      -1.32774091
H        0.05548042       4.13346140      10.42895175       1.00000000      -0.40677251      -0.45881527       0.13734588       0.10068424      -1.20808315       0.94981688
H        2.33125359       7.03518302      13.71491436       1.00000000      -0.13974939       0.14423822       0.16066265       0.16274194       1.77969015       0.44586736
H        2.96346608       5.78096965      10.37956426       1.00000000       0.16942969      -0.09562037       0.21912310      -0.08345771      -0.25716342       0.27019468
H        1.38043421       5.84484467      10.85721240       1.00000000      -0.17785983      -0.21297720       0.04285155       0.98871940      -0.19759414      -0.65034729
H        3.47445825       5.76956034       6.99407576       1.00000000      -0.05144082       0.04642796       0.24037710       0.62816209       0.27413169      -0.10505686
H        0.76742455       5.56720664       7.15851838       1.00000000      -0.01236990       0.29273865      -0.03035211       0.38493851      -0.24141428       0.32280773
O        2.33572591       1.16595519       9.74764792       1.00000000       0.45882353      -0.79551892      -0.20326768       0.43423739      -1.21048665       0.17110586
O        0.47005864       2.21697800      13.47799909       1.00000000       0.69320826       0.53665574       0.10010476      -0.15936606       0.99582505      -0.56842589
O        0.23955595       2.39785043      10.84577596       1.00000000       0.59807877       0.38540725      -0.80654970      -0.89162475      -0.29550835      -0.47862047
O        2.14749167       1.40068467       7.09684075       1.00000000       0.26963075      -0.36857743       0.33003641       1.19365060      -0.29874125       0.09420472
O        0.20944023       5.01701738      10.07108183       1.00000000      -0.22292345       0.71810457       0.85391958      -0.29343167       0.27146572      -0.56248438
O        2.36779860       6.08092370      13.65718511       1.00000000       0.21528703       0.04376904      -0.41398274       0.08022210      -1.25512815       0.84890682
O        2.31750457       6.19048006      11.03578672       1.00000000       0.48705125       1.80339467       0.24158228      -0.44322426       0.36895973       0.25105404
O        0.03994973       4.95721481       7.48649215       1.00000000       1.30561199      -1.14427029       0.56738768      -0.42051709       1.02234423      -0.79543531
H        2.67279245       8.60642184       1.93934664       1.00000000       0.16316344      -0.05980320      -0.06709977      -0.38189539       0.03541948      -0.74701142
H        0.18930245      10.19957444       5.63194310       1.00000000      -0.07145510       0.31326820       0.22286828       0.08623548      -0.04713802      -0.56437039
H        2.53142618       7.74367178       3.31239630       1.00000000       0.08172245      -0.19619361      -0.23958118      -0.01908471      -0.17539370      -0.23288932
H       -0.00367879      11.27190980       6.93958906       1.00000000      -0.28039004       0.01849182       0.03126024      -0.37224504      -1.63203537      -0.70294851
H        1.33605909       9.44774534       3.72357454       1.00000000       0.03454615       0.20666987       0.23594190      -0.91644359      -0.27306372      -0.47258198
H        4.03261742       9.19318229       3.54499852       1.00000000       0.07008218      -0.18369927       0.13089506      -3.09580755      -1.27294779      -1.84154367
H        1.72888925       9.25921615       0.13099571       1.00000000      -0.09239974       0.13761782      -0.12796062      -4.12882853       2.18264198      -0.75577587
H        3.19946066       9.29474460      -0.14970296       1.00000000      -0.00552033      -0.17570792       0.25719934       0.93033719       0.43361756      -0.10735002
H        0.21667669      12.35925462       2.22465472       1.00000000       0.05070455       0.15152596       0.34124644       0.03419964       0.26877287       0.31955022
H        2.32020760      13.64414544       5.46542224       1.00000000       0.11369117       0.16384161      -0.00635756       0.03703529       0.70815957       1.27126086
H        0.23873761      11.25793344       3.45754731       1.00000000       0.02738937       0.03501574       0.07978334       0.46862552       1.61471784      -0.12390062
H        2.11240785      14.82714118       6.69975167       1.00000000       0.26883054       0.03036843      -0.00723182       0.35162121      -1.05104256      -0.59181857
H        3.39300313      12.96504483       3.80533318       1.00000000       0.09137329      -0.07321796       0.20628555      -0.44309902       0.26767257      -0.14254445
H        1.78436006      13.04455451       3.58320818       1.00000000      -0.35354640      -0.03210511      -0.06464887       0.00139204       0.17340834      -0.04041896
H        3.97142466      13.13205281       0.43937023       1.00000000       0.08265579      -0.40032432       0.08699924      -1.39780271       0.30982780      -0.35208398
H        0.92483947      13.24770265      -0.03760009       1.00000000       0.10780373       0.02067422       0.35553410       0.22440191      -0.29326645       0.51715571
O        2.50802893       8.65120570       2.91143493       1.00000000      -0.46171448      -0.01255594       0.20407239       0.22878359      -0.19728529       1.17550910
O       -0.05414213      10.26183438       6.59049560       1.00000000       0.58778609       0.48122170       0.80598968       0.01683271       1.59054220       1.54309368
O        0.43427162       9.79341841       4.04484999       1.00000000       0.25525016       0.36103401       0.78019616      -0.91222906       0.05338327      -0.14952685
O        2.49105113       8.79761294       0.31445749       1.00000000      -0.59882070       0.15546315      -0.00971700       2.78201056      -3.25448537       0.96864051
O        0.30324396      12.31045963       3.22371739       1.00000000       0.63460948       1.12580827       0.96281412       0.07068265      -1.74800694      -0.29903078
O        2.23642793      13.81847117       6.51061022       1.00000000       0.01979421      -0.05179297       0.86788760      -0.56606424       0.63332641      -0.66486287
O        2.58249175      13.56854733       3.92594997       1.00000000       0.41971450       0.55733800      -1.25093008       0.74652296      -0.77064300       0.06918374
O        0.18244615      12.72877221       0.38953550       1.00000000       0.09865866       0.96261802       0.43701796       0.61363053      -0.33117718      -0.07478966
H        2.12872096       8.77990593       9.21861096       1.00000000      -0.28906096       0.27974291       0.33912048       0.36625860       0.23385736       0.60517248
H        0.16317120      10.08709016      12.81261354       1.00000000       0.27814353       0.03597803       0.09569873      -0.16678709       0.15782093       0.16125332
H        2.19507285       7.91951903      10.63904232       1.00000000       0.22969089       0.16862844       0.08631155       0.41456936       0.35142413      -0.51864854
H        0.28169044      11.05627635      14.11163258       1.00000000       0.26314481      -0.11412356      -0.12513991      -0.28424099      -0.32944444      -0.31497550
H        0.88092285       9.43679434      10.81441210       1.00000000       0.11200880       0.05138272      -0.02481960      -0.86030883       1.46867228       0.01784061
H        3.70165723       9.47420963      10.75175798       1.00000000      -0.15280682      -0.16220947       0.03483634       0.25568028      -0.00050261      -0.01188770
H        1.29519650       9.50342279       7.42205024       1.00000000      -0.07676193       0.01010110      -0.16648222       0.14359441      -0.29040280      -0.18111524
H        2.92658619       9.36517168       7.25814359       1.00000000       0.19183273      -0.24003971      -0.17165185      -0.72383076      -0.23165411       0.35642865
H        0.16344681      12.78182466       9.27929245       1.00000000       0.01944879       0.38263102      -0.15614398       0.19307286      -0.22767349       1.45290065
H        2.58746920      13.90241281      12.78982704       1.00000000       0.10165111      -0.21714089       0.11896314       0.06741519      -0.14718857       1.42074537
H        0.15978183      11.66546516      10.53754890       1.00000000      -0.27043927      -0.03280886       0.27013808       0.33387458       1.55528784      -0.42087886
H        2.58419308      14.83013475      14.11282370       1.00000000      -0.14581842       0.27094156       0.17497137       0.11598305      -0.54224730       0.03551574
H        3.27585298      13.19386297      10.69932264       1.00000000       0.08785061       0.25105573      -0.07038016      -0.10587206       0.55963165      -0.09954196
H        1.72633529      13.43342506      10.72536336       1.00000000       0.11046684       0.18322226       0.09798685      -0.58500278      -0.19429335      -0.12855577
H        3.61831114      13.09603286       7.15955757       1.00000000       0.08051162       0.04321267       0.08482297       0.40289032      -0.04660836      -0.29337850
H        0.76995164      13.25555017       7.05857063       1.00000000      -0.10262338      -0.10300544      -0.19102928       0.57694900      -0.32354331       0.49816996
O        2.27901385       8.85771680      10.25115189       1.00000000      -0.92230531      -1.89547398      -1.43845186      -0.54054297      -1.00775512       0.12793326
O        0.18357434      10.08775890      13.81412202       1.00000000      -0.59602926       0.34447319       0.29754531       0.21328983       0.32427153      -0.09902062
O        0.03488470      10.04588962      11.01527598       1.00000000       0.20788710       0.06994050      -0.66793691       0.66962087      -1.43279386      -0.47782329
O        2.06652963       8.91571685       7.68198707       1.00000000       0.52301218      -0.21961279       0.37806545       0.35739854       0.57131714      -0.38524237
O        0.27598357      12.70181400      10.31164647       1.00000000       0.37600256      -0.07518960      -0.73513514      -0.49546033      -1.60343647      -1.08906341
O        2.54802549      13.85119781      13.82212214       1.00000000       0.54165420      -0.25193529      -1.27024040      -0.17342578       0.84981239      -1.72723329
O        2.58547221      13.89979312      10.91007508       1.00000000       0.61027084       0.03759646       0.11669199       0.74443215      -0.66901630       0.43391043
O       -0.00666999      12.84201938       7.57168457       1.00000000      -0.28433799      -0.47508311       1.50619355       0.20386155       0.21516518      -0.77115697
H        6.80812972       1.27057055       1.88629744       1.00000000      -0.30477074       0.07104406       0.11670190      -0.24648866       0.36754802       0.24391448
H        4.60071418       2.99515416       5.50235112       1.00000000      -0.02024531      -0.17290026       0.17350939       0.24035168      -0.65405476       0.75293839
H        6.56772812       0.46159231       3.22231843       1.00000000       0.00831127      -0.04587512      -0.27948163       0.47957638       0.14261313       0.00574621
H        4.42626249       3.68677170       6.92109299       1.00000000      -0.26074001      -0.13793713       0.09199909      -0.08950310       0.31023109      -0.16822664
H        5.59158580       2.21912298       3.54334423       1.00000000       0.00897567       0.01910979      -0.23531792       0.79411936      -0.05734214      -0.36471808
H        8.29950547       1.88845253       3.38534880       1.00000000       0.11212506       0.04617829       0.03696975       0.06710330      -0.11748490      -0.38912985
H        6.10536247       1.72862936      -0.32375684       1.00000000       0.30828895      -0.15330234      -0.05183696       0.94688255      -0.63695419       1.29128766
H        7.72099956       1.36442945      -0.07181651       1.00000000       0.01352366       0.00779557      -0.14382302       0.85978585       0.67386317      -0.49152020
H        4.69596219       5.01628265       1.94166124       1.00000000      -0.13593497       0.02146393       0.07162996      -0.08186380      -0.00717635      -0.13218500
H        6.75310907       6.30257215       5.52550445       1.00000000       0.03494588       0.19838427      -0.11450903       0.14286655       0.77559274      -0.13178009
H        4.78904143       4.14465380       3.30136476       1.00000000      -0.22421222      -0.11651207       0.04939003       0.05220505       0.40174305      -0.43068475
H        6.54212332       7.51425992       6.73716660       1.00000000      -0.01394195       0.05376381       0.16941908       0.16220886      -0.30950063      -0.31426343
H        7.87551633       5.65257875       3.58643422       1.00000000      -0.04412977      -0.25048480       0.01362085      -0.91993004       0.51775289      -0.09837170
H        6.26165098       5.71095522       3.50771190       1.00000000      -0.01288757       0.08615954       0.08913224      -0.06690311       0.20646442      -0.19387871
H        8.10109505       5.36276740      -0.23454570       1.00000000      -0.22458640       0.00210739      -0.01360839       0.20431924      -0.42114404       0.50684142
H        5.27007608       5.33696778      -0.08792446       1.00000000      -0.05333946      -0.00120733       0.08843425      -0.03560380       0.05581800      -0.08132645
O        6.74377623       1.39525292       2.90435016       1.00000000      -0.45045767      -0.14916117       0.28584644       0.11473711      -1.21158111      -0.43362704
O        4.54746350       2.79231999       6.50483675       1.00000000       0.27933238       0.63937047      -0.52136831      -0.40024623      -0.25948131      -0.60322833
O        4.84677824       2.78569738       3.87297568       1.00000000       0.12401056       0.23914809       0.05241169      -0.54587066       0.01584568       0.78543293
O        6.82323369       1.14543121       0.23134568       1.00000000      -1.06564667      -0.37754980      -1.39339037      -2.28948426       0.36873519      -0.49270618
O        4.78182329       5.09807520       2.92841146       1.00000000      -0.61388711       0.94017083      -1.05789808       0.07650777       0.06611907       0.77670950
O        6.68092644       6.52938060       6.49453500       1.00000000       0.07793830      -0.06500041       0.07325339      -0.13476224      -1.65921664       0.24037196
O        7.05625222       6.23223344       3.83547854       1.00000000       0.18351493       0.95610716      -0.63156607       0.48693657      -0.77416325       0.07347123
O        4.49825104       4.84141660       0.32322966       1.00000000      -1.20966990      -0.43681304       0.39790483       0.19900568       0.14368342       0.39771286
H        6.66346597       1.34960311       9.08793359       1.00000000       0.01050059       0.14994177       0.09379700      -0.60178274      -0.08167652       1.08952010
H        4.45623511       2.59415093      12.50668567       1.00000000       0.09232638       0.07592740      -0.13844888       0.33491400       0.25946465       0.20303568
H        6.49780179       0.31284284      10.32470514       1.00000000      -0.03656136      -0.10645219       0.10055969      -0.17730463      -1.01432455       0.37903467
H        4.63052840       3.46709240      13.95023966       1.00000000       0.19142276       0.02710834      -0.12715393       0.05590567      -0.05390416      -0.57104790
H        5.20048124       2.09784813      10.64667058       1.00000000       0.00412380       0.04720464       0.36175693       0.75759399      -0.37053934      -0.16276617
H        8.07361718       1.86952398      10.57673924       1.00000000      -0.17937385      -0.03978017      -0.11444017       0.18863884       0.46217191       0.29432371
H        5.80724193       2.07359781       7.14411482       1.00000000       0.05933630       0.20519333      -0.09472662      -0.53728622      -0.00344497      -0.13093440
H        7.34360847       2.08213772       7.00189364       1.00000000      -0.32244903       0.15444314       0.01511732       1.12877703       0.43696877      -0.43316847
H        4.41707667       4.96343206       8.59095423       1.00000000       0.12825362      -0.14686800       0.23740349      -0.23110293       0.18072897       2.19484782
H        6.71525370       6.21923754      12.51824244       1.00000000      -0.00527532      -0.21414031       0.17359373      -0.48427597      -0.27051187      -0.06949802
H        4.43384904       4.01458615      10.11213991       1.00000000      -0.00338344      -0.11559467       0.01947097      -0.63305277       1.13998687      -0.82134312
H        6.57110200       7.01470589      13.87133798       1.00000000      -0.19251372      -0.03193988      -0.22845118      -0.02198970      -0.06444276       0.01487496
H        7.41152469       5.81746253      10.45462390       1.00000000      -0.00551846       0.21353903      -0.08723169       4.05926228      -1.91642523      -1.45716310
H        5.86392641       5.42302242      10.51984838       1.00000000      -0.12621465      -0.22900927       0.02149735       0.47588393       1.15057945      -0.40461814
H        7.89971416       5.51786742       7.18290770       1.00000000      -0.02283539      -0.14380546      -0.39780362      -0.10276055      -0.08577214       0.32658082
H        5.17516516       5.67220831       6.93181285       1.00000000      -0.02641133       0.03633177       0.05920685       1.87801623       1.67054939      -0.82856768
O        6.47969716       1.25829772      10.11991889       1.00000000       0.39507303      -1.05286537       0.04694681       0.93219644       0.76720357      -1.66440284
O        4.73455529       2.56406580      13.47842363       1.00000000      -0.85672276       0.04659272       0.26210053      -0.04337667      -0.86251354       0.41878417
O        4.37899809       2.55820841      10.93665018       1.00000000      -0.20845588      -0.12858822      -0.47784151      -0.44591090       0.15773962       0.18872160
O        6.62572808       1.58572157       7.45092112       1.00000000       0.56256315       0.42713242       0.32732464      -0.67758369      -0.94684762       1.01782274
O        4.34671159       4.96462055       9.70154794       1.00000000       2.23705233      -0.23743425       0.62441554       0.53631378      -1.20461176      -0.73967264
O        6.56108575       6.08478924      13.50071225       1.00000000       0.57515541       0.32129632       0.66161818       0.58133405       0.87403518      -0.23208635
O        6.59414173       6.11565859      10.72296977       1.00000000       0.04608692       0.36421665      -1.69620589      -4.86167049       1.10207713       1.89807427
O        4.35423119       5.26392663       7.17451463       1.00000000       0.88046629       0.27962873      -0.61392434      -2.33534861      -1.35710716       0.91784286
H        6.56304801       8.76604093       1.83133218       1.00000000      -0.11716877       0.14779175      -0.01562346       0.93246984      -0.06881709       0.98133588
H        4.32244906       9.92079152       5.70715058       1.00000000      -0.24325185       0.06122954       0.03222622      -0.02826710      -0.25314927      -0.75472021
H        6.96741353       7.70181105       3.05077225       1.00000000      -0.38615646      -0.26059003      -0.10058322       0.05123708      -0.29744011       0.24784589
H        4.21774679      11.05358568       6.88186376       1.00000000       0.04843655      -0.14664537       0.13839471       0.10770448      -0.85531318      -0.25010988
H        5.59236032       9.10359861       3.66013521       1.00000000      -0.02520368       0.33489641       0.04653204      -0.41800615       0.41024417       0.26516792
H        8.25971258       9.30355769       3.63887630       1.00000000       0.24163970       0.22227499       0.09996213       1.25166452       0.33508164      -0.00193714
H        5.81138582       9.35093186      -0.10879366       1.00000000      -0.10013535       0.18622990      -0.01131238       0.44953439      -0.25894284       0.58766526
H        7.46407346       9.24233996       0.12789948       1.00000000       0.12146402      -0.04384611      -0.02757515      -0.16745247       0.34918571      -0.13156930
H        4.77280856      12.05169609       2.28478186       1.00000000       0.05789971      -0.07429926      -0.14130567       0.09384463      -0.15511161      -0.26590332
H        6.52644584      14.23415458       5.51622545       1.00000000       0.17391431       0.06790293       0.10582437      -0.02221466      -0.53124601      -0.13169721
H        4.92987527      11.07000834       3.61748867       1.00000000       0.27612669      -0.14135070       0.05361757      -0.25475088      -0.85372061      -0.18241347
H        6.55058422      15.22611992       6.81679613       1.00000000      -0.26913046      -0.06357901       0.14934458      -0.85809517      -1.32092679      -0.00878875
H        7.71150985      13.22411100       3.84951635       1.00000000      -0.26732140      -0.01368344      -0.17506990      -0.00448602      -0.07793801      -0.39756227
H        6.13384751      13.08553763       3.71759134       1.00000000       0.01078273      -0.20327354      -0.11818160      -0.16535033      -0.27559784      -0.15220061
H        8.00132729      13.06102794      -0.03383487       1.00000000       0.13924121      -0.03639347       0.11160913      -0.60538685       0.21296421       0.19731814
H        5.46090484      12.95331773       0.21765721       1.00000000      -0.12348934       0.05274408       0.07686258       0.60591847       0.04047922      -0.03272976
O        6.88867842       8.67359083       2.85016822       1.00000000       0.90693100       1.05564543       0.77402771      -0.53783929       0.38580292      -0.61383218
O        4.13652784      10.02125723       6.66641862       1.00000000      -0.55272766      -0.86531446       0.10290227       0.34030452       1.34117484       0.81004322
O        4.72682191       9.53416834       4.04597990       1.00000000      -0.16459269       1.04011568       0.06053115       3.78217173       0.87029564       2.05844402
O        6.57315362       8.82947295       0.34736693       1.00000000       0.44933446      -0.10509835       0.08919558      -0.44171014      -0.32893243      -0.52024734
O        4.86789673      11.98614779       3.27173331       1.00000000      -0.30429128      -0.32633436       0.51338791      -0.13964354       1.82083499       0.34499934
O        6.31280993      14.23278415       6.49428668       1.00000000       0.10410778       0.43572137      -0.15129961       1.11100972       1.42302608       0.25175786
O        6.85626654      13.72749807       3.94693281       1.00000000       0.21491691      -0.26324244       0.95307909      -0.24347325       0.74851161       0.23076618
O        4.66385176      12.49000394       0.64053051       1.00000000       0.51815021      -0.75610103       0.17405343       0.32636306      -1.14163768       0.58732814
H        6.63411563       8.69384691       8.90760105       1.00000000       0.08127388      -0.02260454      -0.04533228       0.01532359       0.02061174       0.77512451
H        4.65188636      10.11978937      12.60051252       1.00000000       0.02753042       0.33429009      -0.04087048      -0.47800529      -0.17272866       0.67366177
H        6.54811028       7.64862290      10.13515770       1.00000000      -0.20120842       0.00222539      -0.09926074       0.21087610      -0.08775587       0.20845910
H        4.52853110      11.04450448      13.95458982       1.00000000       0.03618155      -0.31834339       0.10322493      -0.21458931      -0.10189368       0.19003482
H        5.29557225       9.21715136      10.50858814       1.00000000      -0.06601453       0.12347844      -0.24798612       0.24672533       0.51841303       0.30291812
H        7.94976834       9.49919649      10.56236251       1.00000000       0.05895864       0.09135516      -0.01352377       0.26086408       0.53116953       0.55443984
H        5.71670333       9.31527565       7.07900342       1.00000000       0.10778452       0.15025439       0.11572278      -1.20037770       0.74242079      -0.27210808
H        7.37349650       9.32105876       6.94950029       1.00000000       0.02398153      -0.11000389      -0.00201432      -1.40487278      -0.25260085       0.72811431
H        4.60430202      12.26242688       9.07681269       1.00000000       0.10571327       0.18593144      -0.22253916       0.02160189      -0.00826074       0.03319178
H        6.49903330      13.45679632      12.64878016       1.00000000      -0.13529655       0.09001346      -0.06167048      -0.22499146       0.69387996       0.21260698
H        4.59491138      11.14467096      10.33433675       1.00000000       0.16894829       0.33230477       0.07129823       0.17278191       0.21714871      -0.00836991
H        6.49846545      14.66850818      13.86128477       1.00000000      -0.00965322       0.22895583      -0.13319616       0.35540476      -0.95535970      -0.23259448
H        7.31806614      13.25678745      10.86530626       1.00000000      -0.08211577       0.10117287       0.02017863       0.80590314      -0.46115124      -0.40439171
H        5.68634283      12.85530520      10.70173409       1.00000000       0.14957663      -0.04654362      -0.04661487       0.96008015       0.76629901       0.39264736
H        7.91027714      13.37002743       7.17352126       1.00000000      -0.08039164      -0.09277419       0.22769571      -0.77544910      -0.17842470       0.22867016
H        5.27379782      13.19676947       6.86660790       1.00000000       0.09106155      -0.18606744      -0.02720507      -1.35831165      -0.54575604       0.84297001
O        6.67884775       8.62320590       9.93792394       1.00000000       0.53539560      -0.78101960      -0.08819951      -0.32200897      -0.05233890      -0.98667116
O        4.43922270      10.09256328      13.60544263       1.00000000      -0.73860975      -0.14502696      -0.19385489       1.12028193       0.71855634      -1.27353776
O        4.62903743       9.84011282      10.96921211       1.00000000       1.43452885      -0.97018775       0.68069652      -0.56196509      -0.74806660      -0.16949890
O        6.49754849       8.80595304       7.33318958       1.00000000       0.86744015      -0.08012966       0.64754061       2.65372777       0.81867385      -0.24658619
O        4.61134063      12.14364014      10.06953803       1.00000000      -0.72791297      -0.17917591       1.34205521      -0.38935614       0.41625822      -0.38619184
O        6.53136212      13.65481916      13.67042915       1.00000000      -0.65372541      -0.82398775      -0.14873886       0.35952196       0.68357527      -0.05983847
O        6.42760507      13.48823060      11.18062504       1.00000000      -0.64432963      -1.02509622       0.92096348      -1.37386918      -0.07826383      -0.48159039
O        4.48237885      12.58876996       7.27866044       1.00000000       1.01558308      -0.83670645      -0.50830168       0.72824490       0.36409295      -0.16948187
