193
Lattice="8.65320864 0.0 0.0 0.0 15.05202152 0.0 0.0 0.0 14.13541336" Properties=species:S:1:pos:R:3 pbc="T T T"
Li       4.32660432       7.52601076       7.06770668
H        2.16330216       1.23403442       2.11535196
H        0.00000000       2.52897096       5.64920530
H        2.16330216       0.29750524       3.41753076
H        0.00000000       3.46550014       6.95138410
H        0.80040077       2.01603954       3.65462320
H        3.52620350       2.01603954       3.65462320
H        1.36290139       1.74696584       0.12076986
H        2.96370298       1.74696584       0.12076986
H        0.00000000       4.99703980       2.11535196
H        2.16330216       6.29197634       5.64920530
H        0.00000000       4.06051062       3.41753076
H        2.16330216       7.22850552       6.95138410
H        2.96370298       5.77904492       3.65462320
H        1.36290134       5.77904492       3.65462320
H        3.52620350       5.50997122       0.12076986
H        0.80040082       5.50997122       0.12076986
O        2.16330216       1.24433022       3.11111974
O        0.00000000       2.51867516       6.64497308
O        0.00000000       2.50225837       3.99184052
O        2.16330216       1.26074701       0.45798718
O        0.00000000       5.00733560       3.11111974
O        2.16330216       6.28168054       6.64497308
O        2.16330216       6.26526375       3.99184052
O        0.00000000       5.02375239       0.45798718
H        2.16330216       1.23403442       9.18305864
H        0.00000000       2.52897096      12.71691198
H        2.16330216       0.29750524      10.48523744
H        0.00000000       3.46550014      14.01909078
H        0.80040077       2.01603954      10.72232988
H        3.52620350       2.01603954      10.72232988
H        1.36290139       1.74696584       7.18847654
H        2.96370298       1.74696584       7.18847654
H        0.00000000       4.99703980       9.18305864
H        2.16330216       6.29197634      12.71691198
H        0.00000000       4.06051062      10.48523744
H        2.16330216       7.22850552      14.01909078
H        2.96370298       5.77904492      10.72232988
H        1.36290134       5.77904492      10.72232988
H        3.52620350       5.50997122       7.18847654
H        0.80040082       5.50997122       7.18847654
O        2.16330216       1.24433022      10.17882642
O        0.00000000       2.51867516      13.71267976
O        0.00000000       2.50225837      11.05954720
O        2.16330216       1.26074701       7.52569386
O        0.00000000       5.00733560      10.17882642
O        2.16330216       6.28168054      13.71267976
O        2.16330216       6.26526375      11.05954720
O        0.00000000       5.02375239       7.52569386
H        2.16330216       8.76004518       2.11535196
H        0.00000000      10.05498172       5.64920530
H        2.16330216       7.82351600       3.41753076
H        0.00000000      10.99151090       6.95138410
H        0.80040077       9.54205030       3.65462320
H        3.52620350       9.54205030       3.65462320
H        1.36290139       9.27297660       0.12076986
H        2.96370298       9.27297660       0.12076986
H        0.00000000      12.52305056       2.11535196
H        2.16330216      13.81798710       5.64920530
H        0.00000000      11.58652138       3.41753076
H        2.16330216      14.75451628       6.95138410
H        2.96370298      13.30505568       3.65462320
H        1.36290134      13.30505568       3.65462320
H        3.52620350      13.03598198       0.12076986
H        0.80040082      13.03598198       0.12076986
O        2.16330216       8.77034098       3.11111974
O        0.00000000      10.04468592       6.64497308
O        0.00000000      10.02826913       3.99184052
O        2.16330216       8.78675777       0.45798718
O        0.00000000      12.53334636       3.11111974
O        2.16330216      13.80769130       6.64497308
O        2.16330216      13.79127451       3.99184052
O        0.00000000      12.54976315       0.45798718
H        2.16330216       8.76004518       9.18305864
H        0.00000000      10.05498172      12.71691198
H        2.16330216       7.82351600      10.48523744
H        0.00000000      10.99151090      14.01909078
H        0.80040077       9.54205030      10.72232988
H        3.52620350       9.54205030      10.72232988
H        1.36290139       9.27297660       7.18847654
H        2.96370298       9.27297660       7.18847654
H        0.00000000      12.52305056       9.18305864
H        2.16330216      13.81798710      12.71691198
H        0.00000000      11.58652138      10.48523744
H        2.16330216      14.75451628      14.01909078
H        2.96370298      13.30505568      10.72232988
H        1.36290134      13.30505568      10.72232988
H        3.52620350      13.03598198       7.18847654
H        0.80040082      13.03598198       7.18847654
O        2.16330216       8.77034098      10.17882642
O        0.00000000      10.04468592      13.71267976
O        0.00000000      10.02826913      11.05954720
O        2.16330216       8.78675777       7.52569386
O        0.00000000      12.53334636      10.17882642
O        2.16330216      13.80769130      13.71267976
O        2.16330216      13.79127451      11.05954720
O        0.00000000      12.54976315       7.52569386
H        6.48990648       1.23403442       2.11535196
H        4.32660432       2.52897096       5.64920530
H        6.48990648       0.29750524       3.41753076
H        4.32660432       3.46550014       6.95138410
H        5.12700509       2.01603954       3.65462320
H        7.85280782       2.01603954       3.65462320
H        5.68950571       1.74696584       0.12076986
H        7.29030730       1.74696584       0.12076986
H        4.32660432       4.99703980       2.11535196
H        6.48990648       6.29197634       5.64920530
H        4.32660432       4.06051062       3.41753076
H        6.48990648       7.22850552       6.95138410
H        7.29030730       5.77904492       3.65462320
H        5.68950566       5.77904492       3.65462320
H        7.85280782       5.50997122       0.12076986
H        5.12700514       5.50997122       0.12076986
O        6.48990648       1.24433022       3.11111974
O        4.32660432       2.51867516       6.64497308
O        4.32660432       2.50225837       3.99184052
O        6.48990648       1.26074701       0.45798718
O        4.32660432       5.00733560       3.11111974
O        6.48990648       6.28168054       6.64497308
O        6.48990648       6.26526375       3.99184052
O        4.32660432       5.02375239       0.45798718
H        6.48990648       1.23403442       9.18305864
H        4.32660432       2.52897096      12.71691198
H        6.48990648       0.29750524      10.48523744
H        4.32660432       3.46550014      14.01909078
H        5.12700509       2.01603954      10.72232988
H        7.85280782       2.01603954      10.72232988
H        5.68950571       1.74696584       7.18847654
H        7.29030730       1.74696584       7.18847654
H        4.32660432       4.99703980       9.18305864
H        6.48990648       6.29197634      12.71691198
H        4.32660432       4.06051062      10.48523744
H        6.48990648       7.22850552      14.01909078
H        7.29030730       5.77904492      10.72232988
H        5.68950566       5.77904492      10.72232988
H        7.85280782       5.50997122       7.18847654
H        5.12700514       5.50997122       7.18847654
O        6.48990648       1.24433022      10.17882642
O        4.32660432       2.51867516      13.71267976
O        4.32660432       2.50225837      11.05954720
O        6.48990648       1.26074701       7.52569386
O        4.32660432       5.00733560      10.17882642
O        6.48990648       6.28168054      13.71267976
O        6.48990648       6.26526375      11.05954720
O        4.32660432       5.02375239       7.52569386
H        6.48990648       8.76004518       2.11535196
H        4.32660432      10.05498172       5.64920530
H        6.48990648       7.82351600       3.41753076
H        4.32660432      10.99151090       6.95138410
H        5.12700509       9.54205030       3.65462320
H        7.85280782       9.54205030       3.65462320
H        5.68950571       9.27297660       0.12076986
H        7.29030730       9.27297660       0.12076986
H        4.32660432      12.52305056       2.11535196
H        6.48990648      13.81798710       5.64920530
H        4.32660432      11.58652138       3.41753076
H        6.48990648      14.75451628       6.95138410
H        7.29030730      13.30505568       3.65462320
H        5.68950566      13.30505568       3.65462320
H        7.85280782      13.03598198       0.12076986
H        5.12700514      13.03598198       0.12076986
O        6.48990648       8.77034098       3.11111974
O        4.32660432      10.04468592       6.64497308
O        4.32660432      10.02826913       3.99184052
O        6.48990648       8.78675777       0.45798718
O        4.32660432      12.53334636       3.11111974
O        6.48990648      13.80769130       6.64497308
O        6.48990648      13.79127451       3.99184052
O        4.32660432      12.54976315       0.45798718
H        6.48990648       8.76004518       9.18305864
H        4.32660432      10.05498172      12.71691198
H        6.48990648       7.82351600      10.48523744
H        4.32660432      10.99151090      14.01909078
H        5.12700509       9.54205030      10.72232988
H        7.85280782       9.54205030      10.72232988
H        5.68950571       9.27297660       7.18847654
H        7.29030730       9.27297660       7.18847654
H        4.32660432      12.52305056       9.18305864
H        6.48990648      13.81798710      12.71691198
H        4.32660432      11.58652138      10.48523744
H        6.48990648      14.75451628      14.01909078
H        7.29030730      13.30505568      10.72232988
H        5.68950566      13.30505568      10.72232988
H        7.85280782      13.03598198       7.18847654
H        5.12700514      13.03598198       7.18847654
O        6.48990648       8.77034098      10.17882642
O        4.32660432      10.04468592      13.71267976
O        4.32660432      10.02826913      11.05954720
O        6.48990648       8.78675777       7.52569386
O        4.32660432      12.53334636      10.17882642
O        6.48990648      13.80769130      13.71267976
O        6.48990648      13.79127451      11.05954720
O        4.32660432      12.54976315       7.52569386
