16
Lattice="0.0 5.43 5.43 5.43 0.0 5.43 5.43 5.43 0.0" Properties=species:S:1:pos:R:3:alchemical_lambda:R:1:momenta:R:3:forces:R:3 energy=-45.41960824504543 free_energy=-45.41960824504543 pbc="T T T"
Si       0.00207765       0.00130433       0.00039308       0.00000000       0.55165223       0.38841997       0.07298562      -0.44444139      -1.22354313       0.48244872
Si       1.36046387       1.36120258       1.35953663       1.00000000       1.92005781       2.16752874       1.89692494      24.19034480      24.13267052      24.13093119
Si       2.71712007       2.71953254       0.00025748       1.00000000       0.76715754       1.15546705       0.22235980      -0.00704451      -0.04965229       0.50088409
Si       4.06792076       4.07016835       1.36427153       1.00000000      -2.50975648      -1.88186458       3.05898283     -23.28239613     -23.22124952      23.24899853
Si       2.71682248      -0.00282949       2.71636780       1.00000000       0.48897566      -0.73867203       0.39408631      -0.04544673       0.50107170      -0.00185941
Si       4.07219434       1.35714676       4.06840991       1.00000000      -1.33518726       1.07862252      -2.15296168     -24.16618570      24.08538128     -24.14505332
Si       5.42542331       2.71124880       2.71044413       1.00000000      -1.35978690      -0.95556370      -1.28352031      -0.44341911       0.05810448       0.07818857
Si       6.78839481       4.06818945       4.07468364       1.00000000       0.24144570      -1.27913371       0.70659952      -0.10825118       0.09113235       0.01116994
Si       0.00276530       2.71434692       2.70793185       1.00000000       0.92819401      -0.18266250      -2.12781209       0.47158074       0.00465002       0.09729526
Si       1.36187285       4.06845723       4.07032958       1.00000000       2.23523063      -2.27995155      -1.69908304      23.69477735     -23.78100413     -23.76496611
Si       2.71154411       5.42867682       2.71379647       1.00000000      -0.96525576      -0.44474382      -0.12952835       0.02318426      -0.43508726       0.03329265
Si       4.07119405       6.79142508       4.07108519       1.00000000      -0.37961729       1.15793975      -0.43816854       0.07027982      -0.08867324       0.04102711
Si       2.71716409       2.71882946       5.42877370       1.00000000       0.67177172       1.28801704      -0.47750139      -0.00127120      -0.06701392      -0.46831499
Si       4.07446702       4.07287639       6.78920268       1.00000000       0.57055881      -0.01180808       0.60461676       0.01546785       0.03778851      -0.05749756
Si       5.42856283       5.43072505       5.43609829       1.00000000      -0.16732481       0.34122148       1.88782995       0.01271175       0.00790399      -0.10504194
Si       6.78406820       6.79017095       6.78867317       1.00000000      -0.89359058       0.59524083       0.14605212       0.02010917      -0.05247937      -0.08150296
