192
Lattice="8.65320864 0.0 0.0 0.0 15.05202152 0.0 0.0 0.0 14.13541336" Properties=species:S:1:pos:R:3:spacegroup_kinds:I:1:momenta:R:3:forces:R:3 energy=-945.5157498096918 free_energy=-945.5157498096918 stress="-0.00176266259341441 0.0009550648861288899 0.0017847442755812362 0.0009550648861288899 -0.008257790909287323 0.00043527716472213516 0.0017847442755812362 0.00043527716472213516 -0.006936910366202295" pbc="T T T"
H        2.32032696       1.34084627       1.93319018        0      -0.22447138       0.01992095      -0.17150713      -0.35312095       0.23639049       0.14642514
H        0.07770506       2.45017610       5.57386369        1      -0.00908187       0.34953384      -0.20027040       0.05488405       0.12501897       0.63713902
H        2.20734165       0.28529474       3.13554112        2       0.27051529      -0.06821403       0.15789796       0.25896218       0.78304583       0.40280482
H        0.05753335       3.27036012       6.99957978        3      -0.07435032       0.13418998      -0.01366512      -0.45489201       1.30167031       0.12750851
H        0.89141841       1.92575244       3.62566740        4       0.17910407      -0.17300205       0.03467719      -0.76481760       0.46027821       0.05453701
H        3.64496108       1.96700626       3.59366953        5       0.09620604       0.36609715      -0.00769935       0.30544996       0.23545253       0.27297434
H        1.20162308       1.79874098       0.00714297        6       0.04097176      -0.03256240      -0.09613578      -0.30863631       0.25287417      -0.06505430
H        2.81323168       1.65395578      -0.08103911        7      -0.10858730      -0.26468699      -0.18502172      -0.49289745      -0.01488205       0.63805383
H        0.19768613       4.86099151       1.99561016        8      -0.17223202       0.08676054      -0.20729251       0.07146285       0.63515788      -0.17220753
H        2.18170598       6.01632605       5.68842032        9       0.15031688      -0.09309602      -0.18059701      -0.22058447       0.44994727      -0.23887347
H       -0.11407831       3.93361716       3.24142479       10      -0.23154684      -0.30475010      -0.27056853       0.60749745       0.69991803       0.28611198
H        2.19845392       7.02998362       6.96222320       11      -0.10589996       0.23639322       0.04430003      -0.07156997       0.20592982       0.02492733
H        3.13053551       5.74949019       3.63168638       12       0.16501454      -0.15287924      -0.00297295      -0.67691433      -0.03738331       0.23816516
H        1.48031701       5.65880311       3.65855751       13      -0.10734389      -0.17542876       0.22850469       0.37084487      -0.01057200      -0.12435675
H        3.69050751       5.47726692       0.01546005       14       0.08386121       0.15659661       0.08610738      -0.16825026      -0.14236659       0.54510170
H        0.98072185       5.66072559      -0.12402443       15      -0.28120875      -0.15741741       0.07882316       1.42969799       1.03571558      -0.59625608
O        2.32471669       1.30482103       2.93894791       16       0.47017423      -0.66924984       0.05652962      -0.21122935      -0.77493495       0.01376261
O        0.04889867       2.38486992       6.60730664       17      -0.40554205       0.18232542      -0.01600861       0.05185066      -0.99972314      -0.73447722
O        0.04592863       2.41316229       3.97657309       18       0.03609890      -1.14164388       0.39688255       0.01696296      -0.94448841      -0.07149655
O        1.97385157       1.26414890       0.34184611       19      -0.19206449       0.33157021      -0.15463351       1.02513528      -0.39702541      -0.49837989
O        0.12648431       4.89484433       2.98581786       20       0.04547411       0.05884141       0.01986770      -0.42398152      -0.89615738       0.27231184
O        2.07852185       6.08216556       6.68076001       21      -0.17290986       0.54453592       0.52979566       0.68714398      -0.20678313       0.09383492
O        2.27033668       6.20811638       3.97490473       22      -0.63887387       0.14211546       0.28661698       0.23817101      -1.10254025       0.08805516
O        0.22844161       5.29969665       0.35653614       23       0.44635238       0.78782001      -0.49608301      -0.49341133      -1.65957475       0.94222528
H        2.13096944       1.09683720       9.29452311        0      -0.25392991      -0.16260782       0.05237913       0.20930523      -0.16613092       1.01486290
H       -0.24308513       2.74734100      12.75317375        1       0.04895249       0.06121275       0.17881232       0.24244241      -0.27628201       0.27866527
H        2.16192084       0.17006018      10.64496060        2       0.03099454      -0.06718470       0.16378193       0.20066234      -0.76385719       0.05648606
H        0.14354579       3.73258857      14.01776536        3       0.06841468       0.26755050      -0.21588309      -0.34580353      -0.33927965      -0.20150743
H        0.67167510       1.77653281      10.96346988        4       0.20306708       0.00171010       0.07385380      -1.13666701       0.22685777      -0.44437757
H        3.65578884       2.16057505      10.76684741        5       0.10669992       0.27039493       0.03418032      -0.27036965      -0.11451192       0.56681961
H        1.44345747       1.91973186       7.22449628        6       0.21276274       0.15916358       0.09721466       0.43677980      -1.22617638      -0.16850217
H        3.03814866       1.73100046       7.04493888        7      -0.11346603      -0.24160115      -0.03418457      -0.13308293      -0.27079719       0.49280041
H        0.03745381       4.86749443       9.40297267        8      -0.04256208       0.02389853      -0.11158685      -0.17430422      -0.26406020      -1.31729507
H        2.54710559       6.26615575      12.54016380        9       0.06242432      -0.20667316       0.02857476      -0.14499056      -0.20465784      -0.50435442
H       -0.08807946       3.92594693      10.68611620       10       0.21490745       0.23614191       0.06013515       0.05290958      -1.35269606      -0.12880591
H        2.34241178       7.35076061      13.66463322       11       0.04573384       0.01226327       0.17560824      -0.03129378       0.56465971       0.83512110
H        3.39583739       5.62776296      10.60879221       12      -0.18259989       0.24524352      -0.25896510      -1.09026837       0.09548684       0.56289011
H        1.70716302       5.55576063      10.76127963       13      -0.10142109      -0.34020848       0.16304771      -0.11904214      -0.24365056      -0.10700563
H        3.52965066       5.36020312       7.09173341       14       0.13500875      -0.28003669       0.03169750       0.66022819      -0.30191821       0.97925216
H        0.75577282       5.45579728       7.40863883       15       0.17906186      -0.02100130      -0.40073954       0.47356516      -0.05462022      -0.42522144
O        2.20005506       1.09429610      10.31620853       16       0.45056135      -0.54825154       0.68312380      -0.13714197       1.04969835      -1.17813683
O       -0.04724601       2.76824671      13.74443978       17       0.00281363      -0.06271763       0.23039098      -0.16266103       0.35490701      -0.15468052
O       -0.22628378       2.25184860      11.06410592       18      -0.14859707      -0.51585093       0.23881044      -0.08307151      -0.14680044       0.40260342
O        2.22279285       1.27248157       7.44610716       19       0.71900401       0.75022338      -0.73633180       0.14591646       1.43088186      -0.00431434
O        0.15201834       4.81334266      10.36295464       20       0.13770471      -0.38403133      -0.62534777       0.37711254       1.30453312       1.07417417
O        2.42084418       6.38504984      13.52278595       21      -1.07709209      -0.22050200      -1.06519089       0.18266243      -0.75209010       0.05299082
O        2.51204217       6.06644686      11.01927719       22      -0.18035601      -0.48783597       0.80355705       1.03145885      -0.02230278      -0.69774711
O       -0.05761198       4.93534479       7.61293870       23      -0.47863362       0.26609027       0.06989985      -1.07913589       0.56153792       0.36744529
H        2.29884683       8.63538051       2.21512847        0       0.03744885      -0.15991073       0.00501538      -0.21005052      -0.06636382      -0.51768273
H        0.35522997      10.07238756       5.61128456        1       0.08418518       0.09619473       0.04326466      -0.13305455       0.07903995      -1.65599966
H        2.13036988       7.57357022       3.44010732        2      -0.00629526      -0.08918632      -0.05939873       0.33603403       0.51991808       0.01829685
H       -0.15846789      11.02312918       6.73733492        3       0.13335139      -0.10921460      -0.05802379       0.10833066       2.03326845       0.50522637
H        0.92673353       9.43371276       3.43909561        4       0.31233789      -0.19756969      -0.04197514       0.41913149       0.32460910      -0.06832340
H        3.56949598       9.25764639       3.83575151        5       0.02540915      -0.05176542      -0.02898522       0.94003582       0.82962298       0.03701320
H        1.42455880       9.23818775       0.21800760        6       0.06546917      -0.07913733       0.05657253      -0.60148203       0.28399307      -0.26554009
H        2.99063450       9.24822449       0.35733217        7      -0.32441729      -0.29000596       0.04873299       0.10472577       0.36554030      -0.48326644
H       -0.15532803      12.58497142       2.05756774        8       0.06361901      -0.03129279       0.11763017       0.29680473       0.61915106       1.30905318
H        2.06325667      13.97167168       5.52796701        9      -0.05545960      -0.08023774      -0.36822678       0.02095303      -0.32583839      -0.90030241
H        0.13862724      11.68660217       3.25185162       10      -0.02115840      -0.18660823       0.09900073      -0.36999071       0.50255686       0.49340007
H        2.13845055      14.95796247       6.73366310       11       0.07093933      -0.09991159       0.19524916      -0.47726840      -0.18875584       0.50490850
H        2.88875694      13.36380624       3.48959211       12       0.14898011      -0.04498383      -0.14265447       0.40320781       0.13887168       0.32406655
H        1.34118296      13.38274615       3.53360280       13      -0.18029850      -0.09662708      -0.13443410       0.16271499       0.98483717       0.37364015
H        3.46451243      13.07836713       0.29532542       14      -0.11270736       0.03176606      -0.08909414       0.84147841       0.04061867      -0.49921662
H        0.72939310      12.81419148      -0.03769771       15      -0.49664317       0.10416623       0.04882876      -0.19590420       0.07825510       0.36629003
O        2.21737946       8.57299490       3.20249561       16       0.50660762       0.26335337      -0.45635014       0.06079613      -0.14653756       0.50638825
O        0.11185712      10.12860553       6.52963794       17      -0.05239898      -0.37592974      -0.97923760       0.44012457      -2.42769265       0.96642983
O        0.19369292      10.11928970       3.56173712       18       0.67520310       0.43720189       0.65216517       0.29843014      -0.00748658       0.34684163
O        2.18135232       8.72136040       0.57277760       19       0.68750728       0.18134347       0.27336103       0.59545517      -0.48680586       0.45020172
O       -0.08352274      12.69094367       3.10380880       20      -0.14180325       0.79193374       0.07903739       0.37568125      -1.52356887      -2.21298933
O        1.96422183      13.98157205       6.50292273       21       0.54648212      -0.94517413      -0.15255911      -0.47623274       0.47384703       0.30017585
O        2.14954132      13.95823510       3.84336608       22      -0.03422089      -0.06975774       0.69396915      -0.87402493      -1.11127520      -0.75731140
O       -0.09891861      12.34609389       0.30509161       23       0.67939868      -0.56340372      -0.54586643      -0.48165962       0.16540916       0.10986739
H        2.23409153       8.64495953       9.43917099        0      -0.01007405       0.04564096       0.31929500       0.12217304       0.38941020      -0.31056386
H        0.02967413       9.91983537      12.67327968        1      -0.04542628       0.14304815      -0.01775942       0.11917330      -0.58878970      -0.34391212
H        2.32639681       7.68380560      10.63610224        2       0.02675021      -0.23102025      -0.18662807      -0.00274756       0.32318500       0.25082782
H       -0.17545260      10.78841637      13.91573553        3      -0.25475876       0.13143880      -0.09558432       0.64381021      -0.66676176       0.31407127
H        0.49739219       9.27113720      10.44829000        4      -0.13542837       0.03942352       0.01976678       0.78285712      -0.63265508      -0.12795432
H        3.56583625       9.60270962      10.98759121        5       0.13340176      -0.16774885      -0.03935052      -0.83177727      -0.16356950      -0.26313257
H        1.58559705       9.17635785       7.23377011        6       0.00017832      -0.25757600       0.14316113      -0.54812801       0.16612904       0.33735183
H        3.11433754       9.01443722       7.36025568        7      -0.12845457       0.21314540       0.11782617      -0.58730370      -0.00011107       0.53178257
H       -0.17246428      12.38804868       9.15194391        8      -0.42028621       0.23154528       0.08848791       0.06124433       0.52641058      -1.89633048
H        2.18711254      13.65876331      12.89141944        9      -0.15512576      -0.15961730       0.36582150       0.13394177      -0.08242829      -1.20128369
H       -0.12358585      11.52687521      10.34506101       10       0.15693603      -0.15641156       0.15129050      -0.02118502      -2.70971036       1.19806111
H        2.06241093      14.68517920      14.14173150       11      -0.21653331      -0.11709252       0.00229544      -0.21638972      -0.99637860      -0.45083997
H        2.91796654      13.16718034      10.66824859       12      -0.16196930      -0.14425431      -0.07333804       0.76820934      -0.39565215       0.23848978
H        1.31133148      13.21987409      10.73388317       13       0.22618617      -0.15377883      -0.23897644       1.52299106       0.23277378       1.22451854
H        3.03999368      13.25028139       7.15318702       14      -0.12401327       0.01522823       0.02616705       0.49315196      -0.40995333       0.04274387
H        0.39291314      13.10767659       7.00914991       15       0.18207272      -0.04713733       0.00785021       0.43790779       0.00475154       0.17651081
O        2.24457870       8.67194061      10.43044296       16       0.05512669       0.09490080       0.13035003      -0.06032855      -0.68068159       0.05957671
O        0.04937540       9.81254784      13.65756859       17      -0.96989284       0.71817770      -0.76390099      -1.01527178       1.39644837      -0.31323212
O       -0.23198337       9.82399332      10.75008730       18      -0.19356796       0.17294625       0.24750992      -1.53224158       1.02980566       0.45408198
O        2.24060064       8.64256136       7.74828673       19      -0.72287777       0.77680596      -0.93906132       1.02286184       0.01731001      -1.11464119
O       -0.09620798      12.44019327      10.11076489       20       0.10119150      -0.24070527       0.37552357       0.13000458       2.58448339       0.75132787
O        2.10138105      13.68216569      13.86506295       21       0.29784190       0.47557131      -0.53933044      -0.13937958       1.27598965       1.52623463
O        2.19204462      13.51746605      11.25193830       22      -0.09306700       0.05416186      -0.06390473      -2.58011436       0.20572934      -1.36301792
O       -0.24191864      12.48803277       7.44336443       23      -0.38960284      -0.95935096       0.55087793      -0.70275337       0.27786767      -0.09847993
H        6.35730486       0.97657847       2.22622329        0       0.02830503      -0.29629626       0.07244153       0.66873771       0.91513401       1.03579533
H        4.42948812       2.59249014       5.54559498        1       0.01475300       0.02362929      -0.12867618       0.20296581      -0.27063769       0.29247642
H        6.19476587       0.23202323       3.65362591        2       0.05797532       0.09868557      -0.02614797       0.75116664       0.65587163      -0.52341521
H        4.51033876       3.32659669       7.06218251        3       0.04412267       0.18788930      -0.14024781       0.02407983      -0.76427907      -0.85108298
H        5.27966594       1.94173005       3.72387885        4      -0.08231699      -0.18757759       0.19868967       0.07698329      -0.13251248      -0.06822363
H        7.87434168       1.82045289       3.82453096        5      -0.20397528      -0.26642663      -0.11961474       0.76526761       0.41022593      -0.37968367
H        5.71133898       1.75033288       0.29017496        6      -0.18927090      -0.11723505       0.06412379       1.04181159      -0.73113412       0.70443964
H        7.32105443       1.91454505       0.42190654        7      -0.06440926       0.03224485      -0.04757920       0.20830859      -0.12897241      -0.06447686
H        4.29989514       4.91150732       2.08670463        8      -0.10341840      -0.00601982      -0.19941648       0.22852197      -0.04214944      -0.24883884
H        6.49636992       6.32183279       5.67887305        9      -0.25307314      -0.23027157      -0.29305126       0.09970725      -0.18984637      -0.65425682
H        4.59460929       3.92119893       3.34403635       10       0.16584732       0.07228184       0.04046411      -0.62442356      -0.26177707       0.20715719
H        6.59902639       7.34060265       6.80155827       11      -0.19628896      -0.04599505       0.33981344      -0.12057272       1.68408155       0.76305771
H        7.51699466       5.93142032       3.60149489       12      -0.26123204       0.08654767       0.07287169      -1.45541775       0.05197176       0.46822196
H        5.93466962       5.52955177       3.63382015       13       0.06475635       0.11786743       0.18724132       0.10340495       0.92080933       0.02268366
H        8.05242353       5.73040390       0.10045593       14      -0.24625292      -0.20808652      -0.02427836      -0.98083073       0.62681442      -0.16677919
H        5.23488571       5.38202418       0.24998142       15       0.00618275       0.03600815      -0.11198217       0.19744666       0.01631841      -0.02590956
O        6.45771076       1.14938914       3.25493507       16      -0.05140821       0.21155433       0.14957296      -0.55918014      -1.99507952      -0.28918564
O        4.51859584       2.43588639       6.56184726       17       0.53955384       0.06989283       0.47415881      -0.22377105       0.79944021       0.84017259
O        4.45075392       2.43158981       4.03003919       18      -0.50686206      -0.96406165      -0.38349016      -0.80620652       0.20627119      -0.25734288
O        6.58544259       1.29552239       0.69905344       19       1.20782373       0.07541871      -0.23776395      -1.57344151       0.61641914      -0.98219770
O        4.41883142       4.86857997       3.08455550       20       0.46643516      -0.67557832      -0.22915047       0.25853193       0.56866217       0.43245038
O        6.41639584       6.41041486       6.66150724       21      -0.02032775       0.65513932      -0.81275085       0.29620025      -1.35763919      -0.34456754
O        6.58593026       6.24623391       3.95743411       22      -0.49461307      -0.50248004      -0.08480668       1.23256159      -0.99215943      -0.66318017
O        4.36938897       4.92999250       0.53154438       23      -0.42579587       0.29566827       1.13932746      -0.50858128      -0.00174576      -0.57830554
H        6.52747323       0.98528025       8.99540814        0       0.13207074       0.04242417       0.22186398      -0.13284877      -0.16457008       0.18161337
H        4.35377701       2.36093028      12.93199792        1       0.06545488      -0.00617835       0.32831130       0.04418008       0.48443753      -1.31148207
H        6.31089334       0.08965090      10.36793605        2       0.00913622      -0.11724983       0.30555814       0.09863174      -0.05551020      -0.10295580
H        4.32848133       3.34240294      14.18794750        3       0.15347275       0.11132680      -0.04380639      -0.06750891       1.50073552       0.19634536
H        5.11906280       1.98673158      11.02115284        4       0.10206781       0.01264683      -0.09073331       1.42883778      -0.77597123      -0.67758459
H        7.58364440       1.72467951      10.70372716        5      -0.17319540      -0.13423754      -0.09093411       1.30809712       0.20925578      -0.03126585
H        5.76956597       1.42848685       7.09905929        6       0.05651315       0.38879728      -0.05477165       0.16134708       0.59792793      -0.45140970
H        7.44393391       1.32447189       7.07092880        7       0.15565335       0.19180998      -0.29515142      -0.58642155       0.42434570      -0.12089369
H        4.40878483       5.11383294       9.02814217        8      -0.04837289       0.14416947      -0.15049027       0.77851623      -0.89648724       1.21037340
H        6.55351953       6.15635566      12.86775926        9       0.20894224       0.29959362       0.32250685      -0.54874897       0.40779972       0.67417932
H        4.56320712       3.96418102      10.30383890       10       0.30350393      -0.18483174      -0.05508549      -0.10729686      -0.52629995       0.23801169
H        6.09287288       7.21702457      14.10966156       11       0.03438760      -0.04875020      -0.13303866       0.86981457      -0.85458469      -0.46503299
H        7.53221634       5.63260304      10.93599992       12      -0.17502631       0.10143313      -0.21956792       0.04667381       0.30697235       0.10163686
H        5.95274005       5.58620112      10.77273025       13       0.07574712      -0.17723159       0.23113204       0.28889671       0.49133396       0.54909974
H        7.85310000       5.56715789       7.32247511       14      -0.02011762       0.07268232       0.21763954       0.26605502      -0.81742293       0.13832022
H        5.09487152       5.46159480       7.04140414       15      -0.02387053      -0.06612409      -0.08270879       1.43732381       0.99433178      -0.17495716
O        6.40979123       1.02190902       9.99322109       16       0.97582999      -0.72490582      -0.89450893      -0.15875413       0.32894701       0.40305257
O        4.29345741       2.41337890      13.89685623       17      -0.41586999      -0.16057143      -1.02169872       0.27777076      -1.90669703       1.06604075
O        4.40799462       2.57207821      11.28795483       18      -0.11402346      -0.18804176      -0.04308744      -1.24028504       0.16584219      -0.42240375
O        6.57456500       0.88834955       7.34328279       19       0.26024529      -0.10317153      -0.77464917       0.33939064      -0.15614209       0.48021033
O        4.59041535       4.91558701      10.07817393       20       0.92956965       0.12052822      -0.42859341      -0.18366703       1.62364924      -1.47571182
O        6.37396454       6.24888662      13.88430700       21      -0.75290181       0.67071833      -0.38802780       0.27161229       0.70408434      -0.50517392
O        6.69670287       6.10323724      11.25953193       22       0.42154193      -0.74632109      -0.25102732      -0.55866498      -0.57628918      -0.60120678
O        4.40598292       5.02017258       7.55149894       23       0.59389013       0.08598903       0.01140553      -2.60098815      -0.50050676      -0.42810535
H        6.23802230       8.82557214       2.04394046        0      -0.28681353      -0.07064178      -0.25886194       0.30199417       0.04125802      -0.77903950
H        4.26596638      10.20098422       5.76881654        1       0.05418067       0.05428939       0.12272512       0.32192025      -0.74238980      -0.24759851
H        6.45165261       7.78357387       3.22132684        2       0.09602490       0.05331897      -0.15657119      -0.00309319       0.22726649       0.25812557
H        4.00747109      11.02231863       7.01085016        3      -0.00336326      -0.10750286      -0.09472208      -0.24987382       1.72996724       1.04424977
H        5.26333738       9.49263225       3.71006944        4      -0.08664306      -0.01987979       0.13255493      -1.37930501       0.23234241       0.49241692
H        8.05194905       9.63418157       3.26782587        5      -0.10048797      -0.02265758      -0.09115819      -0.81065017      -0.11818954       0.01178914
H        5.54452478       9.43146807       0.14118109        6      -0.11628629      -0.25334217      -0.07638021      -1.02941668       0.33633745      -0.14163655
H        7.06671265       9.21465555      -0.07917637        7      -0.16529816       0.09780841       0.09818547       0.30901116      -0.38813782       0.52781421
H        4.10676306      12.42973138       2.04788047        8       0.01527218       0.00953476      -0.06769699       0.50700283      -0.32867885      -0.38475803
H        6.30573049      13.58600290       5.55353815        9      -0.05124950      -0.06605527      -0.00055457       0.03440318      -0.10948687      -0.73019999
H        4.08794210      11.50786973       3.44302219       10      -0.19456323      -0.08751397      -0.03724808       0.00878372      -0.39043823      -0.36777022
H        6.34807977      14.53610346       6.86988358       11      -0.15746835      -0.09738414      -0.01134080       0.21070145      -0.52502704      -0.26544356
H        7.03502013      13.12304265       3.51778686       12       0.05471342       0.17957595       0.04814951       0.89510643      -0.52559239      -0.30006078
H        5.41483070      13.05195897       3.70550005       13      -0.28534718      -0.16737238      -0.23141924      -0.82680720      -0.61219591      -0.79767668
H        7.75172977      12.92149987       0.07477568       14      -0.19083704      -0.13094419       0.13898063       0.43754858      -0.23831056      -0.03978988
H        5.21622703      13.20309818       0.20855830       15      -0.13514394      -0.08106494       0.18223943      -1.10320747      -0.45968664      -0.02609410
O        6.45657549       8.76356687       2.99981883       16      -0.56382462      -0.12110650       0.45573778       0.05413842      -0.19284609       0.88412493
O        4.32102968      10.14116021       6.77352465       17       0.16995664       0.27743473       0.72930041      -0.24681224      -1.17018342      -1.04614770
O        4.35726361       9.89080564       4.10072664       18      -0.42196958      -0.81132549       0.13492526       0.11900737      -0.63602436      -0.48473862
O        6.27975673       8.84150810       0.42221066       19       0.67120460       0.67689446       0.55484641       0.43730554      -0.03957111      -0.58143896
O        4.08618511      12.42549361       3.04590726       20      -0.19946024       0.02995368      -1.13436423      -0.44349673      -0.01809823       0.78418797
O        6.28687995      13.55807356       6.53903697       21       0.21357594      -0.78244713      -0.35302329      -0.64185429       0.39606079       0.86099154
O        6.23393032      13.54455212       3.87800744       22      -1.05995875      -0.32005052      -0.15814115       0.06901711       1.77079880       1.26678991
O        4.37274695      12.62387475       0.44677826       23      -1.08013709      -0.09211332      -0.31889532      -0.23379523       0.44715640       0.41259593
H        6.29719523       8.59916471       9.10766183        0       0.18744125      -0.01354484       0.14007445       0.17227733      -0.24774204      -0.37230474
H        4.40965603      10.19215597      12.75282154        1       0.04985264       0.07418005       0.17385311      -0.81553340      -0.21033269       1.18082476
H        6.39553799       7.64905153      10.50662560        2      -0.11380571       0.20362590       0.06396747       0.18343754      -0.55803108      -0.13220614
H        4.19172262      11.21457181      13.96322880        3       0.00454402      -0.12176204       0.14602799       0.05331330      -0.30248904       0.41284916
H        5.04175984       9.55615365      10.65412885        4       0.22397763       0.14707013       0.08239357       1.33220351      -0.84477174      -0.42365116
H        7.50639160       9.44452346      10.46948425        5      -0.18114249      -0.11818144      -0.13358568       1.07475328      -0.20520510       0.27180952
H        5.68813407       9.48950736       7.17300427        6      -0.01846266      -0.10929058       0.21279032      -0.04433586       0.26075646       0.15054883
H        7.28973768       9.50974455       7.27481612        7       0.10156646      -0.02008889      -0.10198925       0.82271624       0.28379712      -0.48331225
H        4.24418598      12.50054358       9.16994792        8      -0.06201550      -0.04481852       0.27365498      -0.11888978      -0.02670635       0.36706370
H        6.46165933      13.90878922      12.85272181        9      -0.26462021       0.29162030      -0.05417252      -0.08001184       0.13106401      -0.32221231
H        4.35488861      11.49344885      10.53266127       10      -0.19952121       0.02991219       0.06027506      -0.25544721       0.98348755      -0.61578280
H        6.60743265      14.77144625      14.28223355       11      -0.14792799       0.15243679       0.05145145      -0.18500918      -0.19801988      -0.72077358
H        7.26739198      13.35753111      10.70716767       12      -0.00736037      -0.12447037      -0.08365232      -1.43460131      -0.23229262       0.53580374
H        5.62083174      13.18851746      10.86299108       13       0.11125587      -0.03131545      -0.05716558      -1.66586018      -1.35903609      -1.09329712
H        7.48983047      12.84158107       7.14037652       14      -0.18979340       0.01251650      -0.14141103       0.46242884      -0.01362583       0.05404877
H        4.72621580      13.12996781       7.05087544       15      -0.01199429      -0.02958544       0.16542462      -1.72667289      -1.06637263       1.00108135
O        6.24262659       8.53366451      10.10261730       16       0.40642231       0.80365339       0.12611715      -0.39797476       0.85821605       0.35927463
O        4.11765099      10.21834885      13.75187829       17      -1.05947199       1.09720146      -0.40214114       1.08647931       0.29193902      -1.47912705
O        4.39916878      10.12280279      11.10722328       18      -0.06155029       0.23805963       0.21872361      -0.52519566       0.51572841       0.75011051
O        6.49393808       9.04430366       7.57193418       19      -0.45396904      -0.60558318       0.09868981      -0.53244776      -0.96105695       0.26377958
O        4.30505725      12.48314816      10.18262963       20       0.27249036      -1.67193754       0.63553278       0.09294190      -0.70484406      -0.30980465
O        6.44941152      13.86046258      13.84940704       21       0.84411969      -0.40903678      -0.99452413       0.47104722       0.47000325       0.60159737
O        6.37594284      13.71236041      11.11812263       22      -0.32758467      -0.36388508       0.64029886       3.34201455       1.50212848       0.75853419
O        3.84823020      12.69697019       7.50016703       23       1.12247739      -0.13985914      -0.41185065       2.04759502       0.75129342      -0.75361621
